8086
10, 9, 8, 19, 41, 45, 32, 49, 1, 22, 18, 3, 17, 31, 21, 42, 7, 2, 30, 23, 20, 50, 29, 16, 46, 44, 34, 36, 35, 39, 40, 38, 37, 48, 24, 5, 6, 15, 4, 25, 12, 28, 27, 47, 26, 14, 13, 52, 11, 51, 33, 43
